&FORCE_EVAL
   METHOD Quickstep
   &DFT
      BASIS_SET_FILE_NAME BASIS_PBE
      POTENTIAL_FILE_NAME PBE_POTENTIALS
      &QS
         METHOD GPW
         EXTRAPOLATION PS
         EXTRAPOLATION_ORDER 3
         EPS_DEFAULT 1.0E-10
      &END QS
      &POISSON
         PERIODIC XYZ
      &END POISSON
      &SCF
         EPS_SCF 1.0E-6
         SCF_GUESS ATOMIC
         MAX_SCF 50 # Use larger value for real simulations
         &OT T
            MINIMIZER DIIS
            PRECONDITIONER FULL_SINGLE_INVERSE
         &END OT
      &END SCF
      &XC
         &XC_FUNCTIONAL PBE
         &END XC_FUNCTIONAL
         &VDW_POTENTIAL
            DISPERSION_FUNCTIONAL PAIR_POTENTIAL
            &PAIR_POTENTIAL
               TYPE DFTD3
               PARAMETER_FILE_NAME dftd3.dat
               REFERENCE_FUNCTIONAL PBE
               R_CUTOFF [angstrom] 16.0 # Use larger cutoff for real simulations
            &END PAIR_POTENTIAL
         &END VDW_POTENTIAL
      &END XC
      &LS_SCF
         MAX_SCF 50
      &END LS_SCF
      &MGRID
         CUTOFF 300 # Use larger cutoff for real simulations
      &END MGRID
   &END DFT
   &SUBSYS
      &KIND H
         MASS 2.0
         BASIS_SET DZVP-MOLOPT-PBE-GTH-q1
         POTENTIAL GTH-PBE-q1
      &END KIND
      &KIND O
         BASIS_SET DZVP-MOLOPT-PBE-GTH-q6
         POTENTIAL GTH-PBE-q6
      &END KIND
      &KIND Na
         BASIS_SET DZVP-MOLOPT-PBE-GTH-q9
         POTENTIAL GTH-PBE-q9
      &END KIND
      &KIND Cl
         BASIS_SET DZVP-MOLOPT-PBE-GTH-q7
         POTENTIAL GTH-PBE-q7
      &END KIND
      &COORD
         H 1.474783888178688773e+00 9.526063106542638437e+00 8.424776080348959084e+00
         O 2.357925506857782239e+00 9.649736513114582692e+00 8.026133067244803243e+00
         H 2.644059268797853246e+00 8.787784020325387857e+00 7.698141235742792965e+00
         H 1.031163171590165017e+00 1.020660190795399203e+01 1.254366351483435338e+01
         O 4.025353880041621646e-01 1.021695960656166768e+01 1.333353483441187493e+01
         H 1.017457678010833977e+00 1.018331186935427901e+01 1.411004713389140974e+01
         H 4.661404103107802399e+00 2.869376371109916057e+00 1.717244122562037179e-01
         O 3.806296307026119319e+00 2.566876618796181120e+00 5.218490742541778138e-01
         H 3.275383926560099912e+00 3.334818461354757790e+00 9.191536770214180363e-01
         H 4.194576295426778678e+00 -1.049731229253336728e+00 1.037763939566292137e+01
         O 3.925070435879371100e+00 -1.385317495760240547e+00 1.128862605383080009e+01
         H 4.820865032021490748e+00 -1.594456743570163759e+00 1.171893161961897079e+01
         H 9.870334098279123225e+00 4.089542871234150390e+00 7.636682341471550117e+00
         O 9.231264144835389374e+00 4.678219210711883846e+00 7.100010660759483727e+00
         H 9.473134314359219488e+00 5.652793314023144333e+00 7.093953387715076886e+00
         H 6.211637958808010396e+00 4.033594183945139022e+00 7.389658747666735472e+00
         O 6.605089697289487916e+00 4.956197311228499380e+00 7.475844032136872208e+00
         H 7.617159262765655470e+00 4.846515492211483256e+00 7.457035614457906192e+00
         H 7.290243918923127175e+00 7.347250019148178879e+00 3.681359831242059677e+00
         O 6.307342510844975436e+00 7.364902858426038534e+00 3.551890547140726273e+00
         H 6.046904317981997679e+00 6.535079236287562487e+00 3.105285817882118771e+00
         H 1.255134795872350040e+01 7.415498983102306596e+00 1.838349593231255463e+00
         O 1.253132176884337667e+01 8.150785659291125640e+00 1.186897730572438636e+00
         H 1.303022126969278638e+01 7.933287370588914200e+00 3.755458686860875250e-01
         H 1.084734430025597796e+01 6.098416004210601038e+00 2.869351746251930457e+00
         O 1.184787754543006955e+01 5.897008005415796283e+00 2.715315742560365564e+00
         H 1.177130461735687561e+01 5.173525301507683416e+00 2.018257785587536102e+00
         H 9.321999057782605291e+00 2.033692055164161960e+00 6.537411890654513336e+00
         O 8.448058461063876479e+00 1.707739886624610293e+00 6.813318466199571155e+00
         H 8.169058677474566821e+00 1.146841368107445192e+00 6.069144615117905595e+00
         H 5.777741573380256845e+00 6.259848387658465185e+00 6.704525013073929784e+00
         O 5.466516358531984920e+00 7.093754632087769352e+00 6.243711604324075459e+00
         H 5.897326367504441613e+00 7.157581821706373582e+00 5.330123616242887330e+00
         H 3.767667649181379197e+00 2.379986095893116271e+00 1.113079337052207407e+01
         O 4.072195274412412580e+00 2.819462674268943481e+00 1.197383206912966003e+01
         H 4.071419584542754322e+00 3.798571709562667653e+00 1.184335299626464888e+01
         H 6.863679245742550172e+00 1.205817351129714154e+01 8.114358318941835790e+00
         O 6.004359022462548268e+00 1.158463342724013856e+01 8.001243056073473525e+00
         H 5.730863930465414313e+00 1.121827713510569602e+01 8.920241404440719890e+00
         H 2.297415313505314582e+00 -5.107989588246831802e-01 -1.104355171381137923e+00
         O 2.694749286214668249e+00 -2.945841390366809587e-01 -2.451065343553945064e-01
         H 2.654155724762485402e+00 6.904272349575173440e-01 -1.636308751737250156e-01
         H 2.336528344837704552e+00 8.899441332494019363e+00 2.314076010465473843e+00
         O 2.443680277443828874e+00 8.117241829319217672e+00 2.916004428159351569e+00
         H 2.764502665992437436e+00 7.480437794980539401e+00 2.217487147208031306e+00
         H 8.934891463665282085e-01 3.746490518179216966e+00 1.594655285657388566e+00
         O 1.792947138613520286e+00 4.027615732164842477e+00 1.902187903783391310e+00
         H 2.029552103542662245e+00 4.933153851342956031e+00 1.483025175454547817e+00
         H 2.655042933828636542e+00 6.570087962562556783e+00 8.781842221770126855e+00
         O 2.335859040866553826e+00 6.069517980178296135e+00 9.591383981856608898e+00
         H 1.897067038177383980e+00 5.300082626686672960e+00 9.110949418630575281e+00
         H 1.174571199443850311e+01 1.073049686002980252e+01 5.750537800963392066e+00
         O 1.225979038862918813e+01 1.155757891601615306e+01 6.093970543200660117e+00
         H 1.238919145251657383e+01 1.132343124297574732e+01 7.095651837446347976e+00
         H 1.371380269546996367e+01 1.295324004360629999e+01 1.275731770284296829e+01
         O 1.472795898482421606e+01 1.283473179344383119e+01 1.260732890820112573e+01
         H 1.488737728946331806e+01 1.209191255074491522e+01 1.323189860234466764e+01
         H 1.371849049205058435e+01 8.503790166334955103e+00 8.194675306619569000e+00
         O 1.310928132645393873e+01 7.965995350046737755e+00 7.670774774942656471e+00
         H 1.230452864555752512e+01 8.094875560159962902e+00 8.220572937793139801e+00
         H 1.125999956123393630e+01 3.364462214799028850e+00 9.369457169701743027e+00
         O 1.122604611964970367e+01 3.426271031450886184e+00 8.341760903047369169e+00
         H 1.173128800562799690e+01 2.774930067245085397e+00 7.841481321386783776e+00
         H 8.680673074611915396e+00 1.395380230927246146e+01 1.153148994143825590e+01
         O 9.422461589995785758e+00 1.458308880159300358e+01 1.146078367526327568e+01
         H 1.020573334986058711e+01 1.412613010598774643e+01 1.177748082284064424e+01
         H 5.634495314997189475e+00 2.039288413351202145e+00 1.182334228918237429e+01
         O 6.456663999048187996e+00 1.920968188192166970e+00 1.126130683989092063e+01
         H 7.124610444672069498e+00 1.529628949301033325e+00 1.186469101366397894e+01
         H 1.537450456522066666e+01 3.466609308140759182e+00 8.120364069254577544e+00
         O 1.562617765101783185e+01 4.336879261618018511e+00 8.555151716609870505e+00
         H 1.476274806500227754e+01 4.752220004253205232e+00 8.544403215196748391e+00
         H 1.222875367645898237e+01 4.920306102038830787e+00 4.010590281562120829e+00
         O 1.234517087836990612e+01 4.298524990417812219e+00 4.705742832398740028e+00
         H 1.263540370436813731e+01 4.710843962411376928e+00 5.605152177544342251e+00
         H 3.584258041754149193e+00 1.057019106249178542e+01 1.118703771110969214e+01
         O 3.122275519056514348e+00 1.099166554740393664e+01 1.196556150711709066e+01
         H 3.258038670541790971e+00 1.198650209767985508e+01 1.184995423771971090e+01
         H 5.933314643044057313e+00 1.172204804697544311e+01 1.327376778984950434e+01
         O 5.898904526828357753e+00 1.270107332484651153e+01 1.299959281384993659e+01
         H 6.102566403699623443e+00 1.319617628467200099e+01 1.382961546620066429e+01
         H 1.305540162056927400e+01 1.111514283169884543e+01 9.532801062283454030e+00
         O 1.223047529674760092e+01 1.098354008233116907e+01 8.966580460356777138e+00
         H 1.185317781837880879e+01 1.184637774127157606e+01 8.888100142373875912e+00
         H 2.393828687971708113e+00 1.367225906973774485e+01 1.054677859774459714e+00
         O 2.380962130481776295e+00 1.292032131444711673e+01 1.736742812688826021e+00
         H 3.349747254689243281e+00 1.276909750417486400e+01 2.070424426407339258e+00
         H 1.487676292558111513e+00 1.432032949219450302e+01 4.427690393549965187e+00
         O 1.202805077750342511e+00 1.453468567832088532e+01 3.485590551535319825e+00
         H 1.677346532722531869e+00 1.388265936938928036e+01 2.884184789291500906e+00
         H 1.036145669812609071e+01 3.874930197547568955e+00 1.662644500028976324e+01
         O 1.117858274686842357e+01 4.010691647557226069e+00 1.605020140303080112e+01
         H 1.163394075994435539e+01 3.088662689040687415e+00 1.598647282091565103e+01
         H 8.216899659965209990e-01 1.029063279167340106e+01 1.215420544434518302e+00
         O 1.742513866851836957e+00 1.056552087480287305e+01 8.959953826820319378e-01
         H 1.800686968816600064e+00 1.157403410243094477e+01 1.259316126021202464e+00
         H 6.755814405465329742e+00 1.506592589711779517e+01 4.972202334620057229e+00
         O 7.734621664798155827e+00 1.507028318115351517e+01 4.930785932650379344e+00
         H 7.998574160705436142e+00 1.409695835439896783e+01 4.887644539208280570e+00
         H 5.514134664856877865e-01 1.380253457250266536e+01 6.840663058238462213e+00
         O -2.868517820971984156e-01 1.376247573179924721e+01 7.395416111282752780e+00
         H -1.097305457093379122e+00 1.380811079416032783e+01 6.779607345254121675e+00
         H 8.751983194456387949e+00 1.573186266450005100e+01 8.422422972182761924e+00
         O 9.070314960956055828e+00 1.490094917320779899e+01 8.812665766514168553e+00
         H 9.165440329470571967e+00 1.483275375185967171e+01 9.796973788249324855e+00
         H -1.654482578934502179e-01 7.852593253438652221e-01 7.562636479103294285e+00
         O -1.111283257409653724e-01 1.736937641044608460e+00 7.352294249809615323e+00
         H -5.166657370771052804e-01 1.881132354165746978e+00 6.453588804785329813e+00
         H 5.355492533772939545e+00 1.335768381403566885e+01 1.582813029685228079e+00
         O 5.035021868754626873e+00 1.277755084452054390e+01 2.314336911592962842e+00
         H 5.015502924068355739e+00 1.339937903625851590e+01 3.100015648425771264e+00
         H 5.872368375835903542e+00 1.557547660876150708e+01 3.576840789510675744e-01
         O 5.589592375570121341e+00 1.463669207913105375e+01 2.207273930683319729e-01
         H 4.658129136004445670e+00 1.473548421896336436e+01 -1.772160508276136581e-01
         H 8.924481462540276411e+00 2.394193423391877129e+00 1.317494263519281006e+01
         O 8.436118428256945023e+00 1.510815425359603559e+00 1.301362873155467170e+01
         H 9.025018377786972579e+00 9.576901735926635073e-01 1.245294304735876523e+01
         H 1.039062208109033314e+01 3.753889150406908737e+00 1.442743617648527632e+01
         O 1.011599317185926772e+01 3.593086590480080833e+00 1.346353025805537484e+01
         H 1.090840390545734451e+01 3.518456104457384548e+00 1.288514179326222475e+01
         H 4.441437689463978877e+00 2.549888238044466959e+00 4.143297289088247126e+00
         O 5.006969109235538617e+00 3.271612686203031917e+00 4.411248586600884813e+00
         H 4.505193833213015253e+00 3.752557846472609704e+00 5.172214978900036897e+00
         H 1.123681965710515307e+01 1.278789466208911385e+01 2.814256155698331874e+00
         O 1.090313612407260813e+01 1.346780438317965434e+01 3.508504272233849086e+00
         H 1.004664615690050944e+01 1.296062957933936666e+01 3.728379519504109396e+00
         H 1.009168181698891154e+01 8.149930917143029419e+00 8.091716630218876105e+00
         O 1.060870657691993557e+01 8.331183236730062447e+00 8.897780201888931373e+00
         H 1.071206948827422778e+01 9.289933846232043990e+00 9.007280299602264506e+00
         H 8.524627017626533743e+00 9.593941084110062079e+00 8.997749645931056861e-01
         O 7.944767071024358529e+00 1.027820314162766557e+01 4.527427725767555478e-01
         H 7.487380174098694496e+00 1.051040490813096717e+01 1.303760910914730120e+00
         H 1.029385060854762024e+01 1.439544297182819754e+01 -1.140684847029461574e-01
         O 1.130663034104557774e+01 1.419663319803049895e+01 -1.099146966442785256e-01
         H 1.135081740295265540e+01 1.331063960429350956e+01 2.884362768362634943e-01
         H 1.683310945527034974e+00 1.059503585765614986e+01 5.007524035090864523e+00
         O 2.579530582501468494e+00 1.065531392389372378e+01 5.430076894481980609e+00
         H 2.535157958738818440e+00 1.032547580346054872e+01 6.390615902403752990e+00
         H 1.292129333478148112e+01 1.465363000575156249e+01 3.739952182213853504e+00
         O 1.355655957138792189e+01 1.528954546644464152e+01 3.261930799464757058e+00
         H 1.457055924217190146e+01 1.498908449522862618e+01 3.173725607616887601e+00
         H 3.357998151839170831e+00 1.024780801980488221e+01 1.320367032004410746e+01
         O 3.556956711323538300e+00 9.609325485962120439e+00 1.398066485687582983e+01
         H 3.129520597495617729e+00 9.934440681840191800e+00 1.483678237008586720e+01
         H 6.532455826577239222e+00 1.376007740469616003e+01 9.912027952301684763e+00
         O 6.019406527925131201e+00 1.451506986209711592e+01 9.596657103424838908e+00
         H 6.214276246855517272e+00 1.528685812699805524e+01 1.021058675760350809e+01
         H 2.373201845146454048e+00 1.261636144638747581e+01 5.759538188646635248e+00
         O 2.051538357324498740e+00 1.352188848384757058e+01 6.027741383084804561e+00
         H 2.888061755903347461e+00 1.398353879423758883e+01 6.321864402499572932e+00
         H 8.703469021947832118e+00 1.349873697798112993e+01 8.203428471218074947e+00
         O 8.662844111127069979e+00 1.249844519637298923e+01 7.798415624445485861e+00
         H 8.982284319769759051e+00 1.183042895838589459e+01 8.452553594239116563e+00
         H 6.239672896628522203e+00 6.425294696816051143e+00 1.386300696074189887e+01
         O 7.028350731695517162e+00 5.859268382881532844e+00 1.408317076982056548e+01
         H 7.671120024036567564e+00 5.823916722422205261e+00 1.331945578951790310e+01
         H -3.251183060152667004e-01 7.576918552310718979e+00 1.195083465620245278e+01
         O 4.085645625575143880e-01 7.681347082159541984e+00 1.130050976740924895e+01
         H 4.815440880845875959e-01 6.768009272529777576e+00 1.101729227656705845e+01
         H 3.905560753208415559e+00 5.929505144244496151e+00 1.660515431045021018e+01
         O 3.137581686210217935e+00 6.366168077165874628e+00 1.609178314925579656e+01
         H 3.436657248046355306e+00 6.617058372047782022e+00 1.517023275456183384e+01
         H 1.191936726645138833e+01 7.257273766794358760e-01 8.631907102664586606e-01
         O 1.229960270550337853e+01 1.490388759451459766e+00 1.232740249757138029e+00
         H 1.283480388590205301e+01 1.033851327921089691e+00 1.961829488402353494e+00
         H 6.867724222689432167e+00 8.301322497961347580e+00 1.002066738644573007e+01
         O 6.272971844272012376e+00 8.325493005543538771e+00 9.207686072439528857e+00
         H 5.704318628547040859e+00 7.510028902008087037e+00 9.471657147726965320e+00
         H 1.416281319089361190e+01 9.680220045222846181e+00 4.863786881902332659e+00
         O 1.459111360693835913e+01 1.055816204166394456e+01 4.700619208848991981e+00
         H 1.398030130879858390e+01 1.107236853768825036e+01 5.311154025961570824e+00
         H 1.312506508459992460e+01 6.104167552340838299e+00 7.515258818293331977e+00
         O 1.309665616011561795e+01 5.152784727621368077e+00 7.172480611082840518e+00
         H 1.239977221794217854e+01 4.730759215140619034e+00 7.777062799757691103e+00
         H 5.148829821356023295e+00 5.649073162630967815e+00 1.080246350175559655e+01
         O 4.264432112847862832e+00 5.952805774870571831e+00 1.119622474407569968e+01
         H 3.600079892856457242e+00 6.056794468476486060e+00 1.044236628856202032e+01
         H 4.287838434579696489e+00 9.916469548030956815e+00 4.466840120753337473e+00
         O 5.197289625928167567e+00 9.519617503597089581e+00 4.501451884440249351e+00
         H 5.208413748969491941e+00 8.690381014841433327e+00 3.917832247728621375e+00
         H 1.386074820372932770e+01 2.689238875022636144e+00 1.565950663625975281e+01
         O 1.462415290231037091e+01 3.204415851841760254e+00 1.537151562492518764e+01
         H 1.530972220311801735e+01 2.653393795306997482e+00 1.495403106144051364e+01
         H 4.133364652442422127e+00 7.996046027464995376e+00 1.390133111421661027e+01
         O 4.520253843422835871e+00 7.050395728604106793e+00 1.365964560224572466e+01
         H 4.333804613282524087e+00 6.822830523580623030e+00 1.268360895112055431e+01
         H 1.023835115609412050e+01 8.717734715768227005e+00 5.392295964915255091e+00
         O 1.090092330996532510e+01 9.315446944236418503e+00 4.843843231260486881e+00
         H 1.168930247810862078e+01 8.711438790142267408e+00 4.739107863987059410e+00
         H 8.748243631637436124e+00 5.616356696470310439e+00 3.723914448431037805e+00
         O 9.270374412902443240e+00 6.468927643555913320e+00 3.530601008039017330e+00
         H 9.175843657606614912e+00 7.003207072759223273e+00 4.328265806956291151e+00
         H 1.745339287406988404e+01 1.440296106560058220e+01 1.190585927985456394e+01
         O 1.659169527875396000e+01 1.469575102076374939e+01 1.228537757830173405e+01
         H 1.584912203603539105e+01 1.396032745607275416e+01 1.235064487191248617e+01
         H 8.400501719185523797e+00 -9.130199788671590211e-01 1.121293661822820309e-01
         O 8.870501880071381962e+00 -4.473286430262332636e-02 3.445709265789138609e-01
         H 8.686319028698076039e+00 5.692303642286984378e-01 -4.388760697346940631e-01
         H 1.401439920242090764e+01 1.207627382364101942e+00 1.068623120293234763e+01
         O 1.314002587586624138e+01 8.804334650543551577e-01 1.095697162321078366e+01
         H 1.283077046593996151e+01 2.350351340272894274e-01 1.014496474602439235e+01
         H 2.400440104461437851e+00 4.100061926533774326e+00 5.574499184358048254e+00
         O 3.099439524616661501e+00 4.009676920507952325e+00 6.329480892729320018e+00
         H 2.909331768824742426e+00 4.805710642899006402e+00 6.923042662513809731e+00
         H 7.002789867486823860e-01 5.996981154523130186e+00 4.669657796177606457e+00
         O 7.202030847825866555e-01 6.952858064719173115e+00 4.841881067966699703e+00
         H 1.373462269163523430e+00 7.257646797083636692e+00 4.143762092707905076e+00
         H 1.028451881116110478e+01 4.037042770634400313e-01 2.918729000072812330e+00
         O 9.857753033013970878e+00 1.259402317484790590e+00 3.325650957484545867e+00
         H 9.075518621247264051e+00 8.761013934417589688e-01 3.790987953480291939e+00
         H 1.172913320021747907e+01 1.374039332367384425e+01 5.802359767392522905e+00
         O 1.219582054574235030e+01 1.437380892697843215e+01 6.395074586386991555e+00
         H 1.191119117983316578e+01 1.532762242839478972e+01 6.074266785463506402e+00
         H 3.816759711019833023e+00 1.001054715630863789e+01 9.108091481813573864e+00
         O 4.554943370944197767e+00 1.023145353933673007e+01 9.799725584633083741e+00
         H 4.941754192490968478e+00 9.325853572009158654e+00 9.943490615859772674e+00
         H 1.097801967347159469e+01 8.853441816952621224e+00 1.660055449454000076e+00
         O 1.011293920442300021e+01 9.242474455992503835e+00 1.971473501237954284e+00
         H 1.021711632221263777e+01 9.335959666232771070e+00 2.994062281040926532e+00
         H 1.033060393447454928e+01 5.907989690789403170e+00 1.138662373968565689e+01
         O 1.099647333373290436e+01 6.706922650193115842e+00 1.138214238900814834e+01
         H 1.078748246189388560e+01 7.237053713195927607e+00 1.057474565797002342e+01
         H 6.845396134184892567e+00 9.828794735835117535e+00 1.431702542217222174e+01
         O 6.256598921497460886e+00 9.838830542624215525e+00 1.343052296192072248e+01
         H 5.323937465982488959e+00 9.620199495937665546e+00 1.371789628743006162e+01
         H 1.463609816588196999e+01 1.210470000288352743e+01 1.088177267115410629e+01
         O 1.458171933146426369e+01 1.179815366733150839e+01 9.963547517485945804e+00
         H 1.482089356565968785e+01 1.253709096582910654e+01 9.355249025867582446e+00
         H 5.857367339819073981e-01 3.336610280673641959e+00 4.706587608323619776e+00
         O 1.295892225140782283e+00 3.964043691916633527e+00 4.528518919685900812e+00
         H 1.499110258099644488e+00 4.028532272542904025e+00 3.511507628356967725e+00
         H 8.336479932649847768e+00 7.645898729357160306e+00 1.182913755571766856e+01
         O 7.932223072544642761e+00 8.517405820846722264e+00 1.157069344252958487e+01
         H 7.267411668741842412e+00 8.872689761631988858e+00 1.226061672018859738e+01
         H 2.648107603273549771e+00 7.059863687084857453e-01 3.244925242101847296e+00
         O 3.550215403981987095e+00 9.671262682706434077e-01 3.021340561214877596e+00
         H 3.616591199235456688e+00 1.695381399104587850e+00 2.368818768110174666e+00
         H -1.219864362603429342e+00 1.623582929945446729e+00 4.277256369637688849e+00
         O -9.409143709714148374e-01 2.392375411421545639e+00 4.911740306387344823e+00
         H -1.668413490453561687e+00 3.100500406890328353e+00 4.662036453946988068e+00
         H 1.077956342864085570e+01 8.079328759317315090e+00 1.259053658211358595e+01
         O 1.100142847253553668e+01 8.829375244288550917e+00 1.322337817717302499e+01
         H 1.072901744150700054e+01 8.526215388132037276e+00 1.405738396378287192e+01
         H 1.194026091913934806e+01 -8.050356831477455399e-01 1.352053540046811975e+01
         O 1.225221844732644705e+01 -1.016120133555324268e+00 1.254713993539420613e+01
         H 1.278379663365905294e+01 -2.860802265672035549e-01 1.213640552416618945e+01
         H 1.231690918563781523e+01 1.133310280655127578e+01 1.302293626458551179e+00
         O 1.143463438208668492e+01 1.171551968010564160e+01 9.708644128603773904e-01
         H 1.070908597431099807e+01 1.108282207488444193e+01 1.199968330535654548e+00
         H 2.794641079023895358e+00 2.556751653887428422e+00 6.974050610945787376e+00
         O 2.852160018712889933e+00 1.587380140068419987e+00 7.233177851937040437e+00
         H 1.943493090226388054e+00 1.280389692408046676e+00 7.034034743366479603e+00
         H 1.423008389738487089e+01 4.716684241444436765e+00 1.415106281478329464e+01
         O 1.448063923989250057e+01 5.426320678166593581e+00 1.353442788427270216e+01
         H 1.426419578976003955e+01 6.296935985495964339e+00 1.389219955803447348e+01
         H 5.485727843969923967e+00 4.594274230963207195e+00 1.656953049202536832e+00
         O 5.190903383845729024e+00 5.176162977036878665e+00 2.371292295543878659e+00
         H 5.110848295874231617e+00 4.535581905008901238e+00 3.178936935098053862e+00
         H 8.921426011659210786e+00 4.551394547211678798e+00 1.221446313697898134e+01
         O 8.592261129375563300e+00 5.334676807306951929e+00 1.173316044450758255e+01
         H 7.845462766836527102e+00 5.057023576909927876e+00 1.103591194109015206e+01
         H 1.150536073619548993e+01 1.205827817368203725e+01 1.187029299365775259e+01
         O 1.071661657215407004e+01 1.138933193940998478e+01 1.189186225458628243e+01
         H 1.085286087719790515e+01 1.062684734752452620e+01 1.259810893854336555e+01
         H 4.470829868258912931e+00 -3.294474773288033620e-02 4.335959941108885829e+00
         O 5.158945749119015822e+00 -6.838003931197073060e-01 4.580475671759804079e+00
         H 4.953936598150606940e+00 -8.887187490615838792e-01 5.518508706226691984e+00
         H 8.515142634879051542e+00 1.158771791349273705e+01 1.464451052763144290e+01
         O 8.828439096334106395e+00 1.250482464295022034e+01 1.431864336907087676e+01
         H 9.288475068107707955e+00 1.223033663141369232e+01 1.351973217921878501e+01
         H 6.672179213022118027e+00 4.132549787186045265e+00 -2.816377793059886558e-01
         O 6.360803681979592561e+00 3.512999303020817532e+00 3.425746543122742405e-01
         H 7.194640638203821048e+00 3.155736026064263733e+00 7.943697076077139707e-01
         H 8.017764723092787094e+00 1.187864629104938885e+01 1.042002765241538853e+01
         O 7.473355246314208777e+00 1.264740904868342319e+01 1.073876942757965836e+01
         H 6.862590108056366489e+00 1.232373859637791647e+01 1.149594529615788474e+01
         H 1.400952519556944154e+01 7.566366791032849370e+00 4.864000126354762976e+00
         O 1.322215776847451529e+01 8.076229871188036924e+00 5.131399812269767047e+00
         H 1.319713031491732025e+01 8.092194737789807135e+00 6.138165803256073083e+00
         H 6.741959188922451496e+00 4.576613514711028508e+00 9.337818011488579373e+00
         O 6.696210304127586888e+00 4.496331916480929891e+00 1.032822055459033095e+01
         H 6.663602255061109148e+00 3.515165856053758198e+00 1.062631490621612329e+01
         H 4.695796575724934918e+00 2.156025720988678174e+00 7.465330343933689328e+00
         O 5.633832763055593773e+00 2.482115511616664882e+00 7.521051896533764491e+00
         H 6.317841026518403069e+00 1.787750114022264469e+00 7.491056805581441935e+00
         H 9.921038008242129891e+00 1.090897173291563149e+01 1.057315575865818147e+01
         O 9.240114592963369233e+00 1.071467213609995106e+01 9.901013142550006307e+00
         H 8.841074695391220928e+00 9.873213853575933285e+00 1.011470403445843047e+01
         H 8.368291054350574854e+00 6.860108809445546463e+00 3.976929519101688459e-01
         O 9.199432528183635327e+00 7.413293138989415887e+00 3.187707552146019085e-01
         H 9.358104296671591271e+00 7.825131936487194295e+00 1.219372557725700412e+00
         H 1.206887922651673861e+01 2.251573083724351498e+00 1.124599594753981435e+01
         O 1.169962529968715792e+01 3.151891171400059921e+00 1.114680600619714923e+01
         H 1.236211634671695059e+01 3.857248269999470569e+00 1.106154756567084618e+01
         H 6.584020899638255209e+00 1.183481766671457791e+01 2.769208538694517774e+00
         O 7.156633874316758792e+00 1.114079257788569954e+01 3.117586318619002039e+00
         H 6.533872016874332722e+00 1.057819040901805785e+01 3.607423064754259112e+00
         H 3.797066131072377448e-01 3.362040779135063939e+00 1.046982384291709423e+01
         O 5.030261066175483187e-01 2.528161804833691573e+00 1.097448029172390349e+01
         H 6.939808653498262814e-01 2.634730493247254834e+00 1.193658089746974227e+01
         H 1.140516923145907313e+01 2.892886412815144137e+00 5.329739379443348746e+00
         O 1.103496374018379456e+01 2.055447762708370707e+00 5.699102561115350518e+00
         H 1.051561569870787949e+01 1.685272539352086651e+00 4.910662860958677101e+00
         H 1.451801350510291799e+00 1.215423161730311730e+00 1.310973882919951805e+01
         O 1.424301010661276123e+00 2.127195438446130904e+00 1.353715675957875320e+01
         H 2.396666779706195349e+00 2.441906985186188539e+00 1.355637518462502555e+01
         H 3.733663034516721879e+00 7.124130820804724706e+00 6.318711873136993340e+00
         O 2.911683964122814494e+00 7.048610071654118236e+00 6.938690805291273911e+00
         H 2.115039997955758366e+00 6.968682657219941845e+00 6.316727297701318022e+00
         H 8.153850766181385268e+00 1.182634395424251927e+01 4.495612689470864787e+00
         O 8.572282374166974250e+00 1.254961451343650936e+01 5.020607426739037038e+00
         H 8.720823506533427860e+00 1.231406898070563649e+01 5.979068809817013275e+00
         H 1.097477408599301363e+01 -5.760483729980994116e-01 9.105539024374564860e+00
         O 1.195495110857763343e+01 -8.415568332504950178e-01 9.025625094652284020e+00
         H 1.205729797409298953e+01 -6.771881388387341882e-01 8.055999447689629278e+00
         H 1.273949149775376455e+01 8.545867576500388196e+00 1.319255100080065546e+01
         O 1.364815275396464678e+01 8.251098132749904224e+00 1.342828575358113952e+01
         H 1.425298137133259679e+01 9.086530087483636109e+00 1.345489717417162012e+01
         H 2.905272315482393619e+00 1.410591604412834599e+00 9.009858673408068341e+00
         O 3.008418378118368430e+00 1.331832269590901507e+00 9.998887192003504509e+00
         H 2.160470322428679868e+00 1.585073697796126613e+00 1.038806160403802892e+01
         H 8.167868299527759390e+00 3.791205079496417607e+00 5.230276068881821061e+00
         O 7.787193760686832000e+00 4.261574909627133145e+00 4.481921581248044184e+00
         H 6.906567091312179052e+00 3.823355028985611970e+00 4.434321933561797380e+00
         H 1.368533391211485117e+01 9.839417240112789287e+00 1.537057518568346159e+00
         O 1.406369745662913928e+01 1.073221911147203755e+01 1.766015807293585649e+00
         H 1.407822471976641410e+01 1.064199304232030840e+01 2.785733619053945898e+00
         H 4.901862109582605598e+00 1.445766614425238750e+01 7.858083674477003733e+00
         O 4.510741366664201557e+00 1.393925927667877396e+01 7.101650921249612836e+00
         H 4.808168632190944258e+00 1.301045374647881303e+01 7.522078806562067399e+00